Version identifier: 12.10.0.0 | 2019-11-26 | 843d4de
CPXPARAM_WorkMem                                 28672
Tried aggregator 2 times.
Aggregator did 30 substitutions.
Reduced MIP has 108 rows, 135 columns, and 507 nonzeros.
Reduced MIP has 135 binaries, 0 generals, 0 SOSs, and 0 indicators.
Presolve time = 0,00 sec. (0,46 ticks)
Found incumbent of value 90,000000 after 0,00 sec. (0,87 ticks)
Probing time = 0,00 sec. (0,15 ticks)
Tried aggregator 1 time.
Detecting symmetries...
MIP Presolve eliminated 18 rows and 0 columns.
MIP Presolve added 36 rows and 0 columns.
Reduced MIP has 126 rows, 135 columns, and 525 nonzeros.
Reduced MIP has 135 binaries, 0 generals, 0 SOSs, and 0 indicators.
Presolve time = 0,00 sec. (0,61 ticks)
Probing time = 0,00 sec. (0,15 ticks)
Clique table members: 342.
MIP emphasis: balance optimality and feasibility.
MIP search method: dynamic search.
Parallel mode: deterministic, using up to 16 threads.
Root relaxation solution time = 0,00 sec. (0,29 ticks)

        Nodes                                         Cuts/
   Node  Left     Objective  IInf  Best Integer    Best Bound    ItCnt     Gap

*     0+    0                           90,0000        0,0000           100,00%
*     0+    0                           58,0000        0,0000           100,00%
      0     0       30,0000    84       58,0000       30,0000       39   48,28%
      0     0       30,0000    84       58,0000     Cuts: 123       91   48,28%
      0     0       30,1031    84       58,0000     Cuts: 131      175   48,10%
      0     0       30,2295    84       58,0000     Cuts: 131      197   47,88%
      0     0       30,3259    84       58,0000     Cuts: 125      205   47,71%
      0     0       30,4005    84       58,0000      Cuts: 95      207   47,59%
      0     0       36,3063    84       58,0000     Cuts: 131      325   37,40%
      0     0       36,3488    84       58,0000   ZeroHalf: 5      332   37,33%
      0     0       36,4701    84       58,0000   ZeroHalf: 2      347   37,12%
      0     0       36,5181    84       58,0000       Cuts: 8      351   37,04%
      0     0       36,6085    84       58,0000   ZeroHalf: 2      368   36,88%
      0     0       36,6530    84       58,0000   ZeroHalf: 2      386   36,81%
*     0+    0                           57,0000       36,6530            35,70%
      0     0       36,6683    84       57,0000      Cuts: 35      395   35,67%
      0     0       36,6971    84       57,0000   ZeroHalf: 3      398   35,62%
      0     0       36,7158    84       57,0000   ZeroHalf: 2      405   35,59%
      0     0       36,7689    84       57,0000   ZeroHalf: 5      417   35,49%
      0     0       36,7933    84       57,0000   ZeroHalf: 1      429   35,45%
      0     0       36,8050    84       57,0000       Cuts: 4      446   35,43%
      0     0       36,8054    84       57,0000   MIRcuts: 11      447   35,43%
      0     2       36,8054   123       57,0000       40,8078      447   28,41%
Elapsed time = 0,21 sec. (85,15 ticks, tree = 0,02 MB, solutions = 3)

Clique cuts applied:  72
Cover cuts applied:  124
Mixed integer rounding cuts applied:  38
Zero-half cuts applied:  9
Gomory fractional cuts applied:  4

Root node processing (before b&c):
  Real time             =    0,21 sec. (84,94 ticks)
Parallel b&c, 16 threads:
  Real time             =    0,07 sec. (38,24 ticks)
  Sync time (average)   =    0,04 sec.
  Wait time (average)   =    0,00 sec.
                          ------------
Total (root+branch&cut) =    0,27 sec. (123,18 ticks)
